NAME : portgen-50-305
COMMENT : portgen N=50, seed=305
TYPE : TSP
DIMENSION : 50
EDGE_WEIGHT_TYPE : EUC_2D
NODE_COORD_SECTION
1 1599 39
2 2178 2866
3 235 1603
4 458 423
5 1059 522
6 3110 777
7 758 1892
8 2653 1034
9 562 2412
10 1989 2548
11 519 1864
12 1989 602
13 286 1495
14 1135 1474
15 1641 1915
16 821 1243
17 1953 2007
18 516 168
19 800 462
20 1500 3079
21 840 2771
22 121 2457
23 859 568
24 3045 537
25 151 1639
26 1669 1548
27 1902 2339
28 248 356
29 1248 171
30 2350 67
31 803 3158
32 2086 1143
33 2845 338
34 656 1463
35 1032 2084
36 1151 25
37 2260 349
38 878 2134
39 3124 2813
40 354 3093
41 246 964
42 2286 1573
43 1111 825
44 2319 809
45 2325 177
46 2674 2499
47 2593 2579
48 1927 814
49 511 2934
50 1579 1887
